c Generated by SAT Solver
p cnf 3003 504
101 102 103 0
201 202 203 0
301 302 303 0
401 402 403 0
501 502 503 0
601 602 603 0
701 702 703 0
801 802 803 0
901 902 903 0
1001 1002 1003 0
1101 1102 1103 0
1201 1202 1203 0
1301 1302 1303 0
1401 1402 1403 0
1501 1502 1503 0
1601 1602 1603 0
1701 1702 1703 0
1801 1802 1803 0
1901 1902 1903 0
2001 2002 2003 0
2101 2102 2103 0
2201 2202 2203 0
2301 2302 2303 0
2401 2402 2403 0
2501 2502 2503 0
2601 2602 2603 0
2701 2702 2703 0
2801 2802 2803 0
2901 2902 2903 0
3001 3002 3003 0
-101 -102 0
-101 -103 0
-102 -103 0
-201 -202 0
-201 -203 0
-202 -203 0
-301 -302 0
-301 -303 0
-302 -303 0
-401 -402 0
-401 -403 0
-402 -403 0
-501 -502 0
-501 -503 0
-502 -503 0
-601 -602 0
-601 -603 0
-602 -603 0
-701 -702 0
-701 -703 0
-702 -703 0
-801 -802 0
-801 -803 0
-802 -803 0
-901 -902 0
-901 -903 0
-902 -903 0
-1001 -1002 0
-1001 -1003 0
-1002 -1003 0
-1101 -1102 0
-1101 -1103 0
-1102 -1103 0
-1201 -1202 0
-1201 -1203 0
-1202 -1203 0
-1301 -1302 0
-1301 -1303 0
-1302 -1303 0
-1401 -1402 0
-1401 -1403 0
-1402 -1403 0
-1501 -1502 0
-1501 -1503 0
-1502 -1503 0
-1601 -1602 0
-1601 -1603 0
-1602 -1603 0
-1701 -1702 0
-1701 -1703 0
-1702 -1703 0
-1801 -1802 0
-1801 -1803 0
-1802 -1803 0
-1901 -1902 0
-1901 -1903 0
-1902 -1903 0
-2001 -2002 0
-2001 -2003 0
-2002 -2003 0
-2101 -2102 0
-2101 -2103 0
-2102 -2103 0
-2201 -2202 0
-2201 -2203 0
-2202 -2203 0
-2301 -2302 0
-2301 -2303 0
-2302 -2303 0
-2401 -2402 0
-2401 -2403 0
-2402 -2403 0
-2501 -2502 0
-2501 -2503 0
-2502 -2503 0
-2601 -2602 0
-2601 -2603 0
-2602 -2603 0
-2701 -2702 0
-2701 -2703 0
-2702 -2703 0
-2801 -2802 0
-2801 -2803 0
-2802 -2803 0
-2901 -2902 0
-2901 -2903 0
-2902 -2903 0
-3001 -3002 0
-3001 -3003 0
-3002 -3003 0
-101 -301 0
-102 -302 0
-103 -303 0
-101 -401 0
-102 -402 0
-103 -403 0
-101 -901 0
-102 -902 0
-103 -903 0
-101 -1301 0
-102 -1302 0
-103 -1303 0
-101 -1801 0
-102 -1802 0
-103 -1803 0
-101 -2001 0
-102 -2002 0
-103 -2003 0
-101 -2901 0
-102 -2902 0
-103 -2903 0
-201 -401 0
-202 -402 0
-203 -403 0
-201 -501 0
-202 -502 0
-203 -503 0
-201 -1001 0
-202 -1002 0
-203 -1003 0
-201 -1201 0
-202 -1202 0
-203 -1203 0
-201 -1301 0
-202 -1302 0
-203 -1303 0
-201 -1401 0
-202 -1402 0
-203 -1403 0
-201 -1501 0
-202 -1502 0
-203 -1503 0
-201 -1901 0
-202 -1902 0
-203 -1903 0
-201 -2001 0
-202 -2002 0
-203 -2003 0
-201 -3001 0
-202 -3002 0
-203 -3003 0
-301 -401 0
-302 -402 0
-303 -403 0
-301 -601 0
-302 -602 0
-303 -603 0
-301 -801 0
-302 -802 0
-303 -803 0
-301 -1301 0
-302 -1302 0
-303 -1303 0
-301 -1401 0
-302 -1402 0
-303 -1403 0
-301 -1601 0
-302 -1602 0
-303 -1603 0
-301 -2101 0
-302 -2102 0
-303 -2103 0
-301 -2301 0
-302 -2302 0
-303 -2303 0
-301 -2401 0
-302 -2402 0
-303 -2403 0
-301 -2501 0
-302 -2502 0
-303 -2503 0
-301 -2601 0
-302 -2602 0
-303 -2603 0
-301 -2701 0
-302 -2702 0
-303 -2703 0
-401 -901 0
-402 -902 0
-403 -903 0
-401 -1501 0
-402 -1502 0
-403 -1503 0
-401 -1601 0
-402 -1602 0
-403 -1603 0
-401 -1801 0
-402 -1802 0
-403 -1803 0
-401 -2301 0
-402 -2302 0
-403 -2303 0
-401 -2401 0
-402 -2402 0
-403 -2403 0
-501 -1501 0
-502 -1502 0
-503 -1503 0
-501 -1901 0
-502 -1902 0
-503 -1903 0
-501 -2001 0
-502 -2002 0
-503 -2003 0
-601 -2201 0
-602 -2202 0
-603 -2203 0
-601 -2401 0
-602 -2402 0
-603 -2403 0
-601 -2701 0
-602 -2702 0
-603 -2703 0
-601 -2801 0
-602 -2802 0
-603 -2803 0
-701 -2001 0
-702 -2002 0
-703 -2003 0
-701 -2101 0
-702 -2102 0
-703 -2103 0
-701 -2501 0
-702 -2502 0
-703 -2503 0
-701 -3001 0
-702 -3002 0
-703 -3003 0
-801 -1201 0
-802 -1202 0
-803 -1203 0
-801 -1501 0
-802 -1502 0
-803 -1503 0
-801 -1701 0
-802 -1702 0
-803 -1703 0
-801 -1901 0
-802 -1902 0
-803 -1903 0
-801 -2001 0
-802 -2002 0
-803 -2003 0
-801 -2601 0
-802 -2602 0
-803 -2603 0
-801 -2701 0
-802 -2702 0
-803 -2703 0
-801 -2901 0
-802 -2902 0
-803 -2903 0
-801 -3001 0
-802 -3002 0
-803 -3003 0
-901 -2101 0
-902 -2102 0
-903 -2103 0
-901 -2601 0
-902 -2602 0
-903 -2603 0
-901 -2901 0
-902 -2902 0
-903 -2903 0
-901 -3001 0
-902 -3002 0
-903 -3003 0
-1001 -1201 0
-1002 -1202 0
-1003 -1203 0
-1001 -1501 0
-1002 -1502 0
-1003 -1503 0
-1001 -2001 0
-1002 -2002 0
-1003 -2003 0
-1001 -2101 0
-1002 -2102 0
-1003 -2103 0
-1001 -2301 0
-1002 -2302 0
-1003 -2303 0
-1001 -2601 0
-1002 -2602 0
-1003 -2603 0
-1001 -2701 0
-1002 -2702 0
-1003 -2703 0
-1101 -1201 0
-1102 -1202 0
-1103 -1203 0
-1101 -1701 0
-1102 -1702 0
-1103 -1703 0
-1101 -1801 0
-1102 -1802 0
-1103 -1803 0
-1101 -2001 0
-1102 -2002 0
-1103 -2003 0
-1101 -2901 0
-1102 -2902 0
-1103 -2903 0
-1201 -1401 0
-1202 -1402 0
-1203 -1403 0
-1201 -1601 0
-1202 -1602 0
-1203 -1603 0
-1201 -1701 0
-1202 -1702 0
-1203 -1703 0
-1201 -2201 0
-1202 -2202 0
-1203 -2203 0
-1201 -2401 0
-1202 -2402 0
-1203 -2403 0
-1201 -2501 0
-1202 -2502 0
-1203 -2503 0
-1201 -2901 0
-1202 -2902 0
-1203 -2903 0
-1301 -1401 0
-1302 -1402 0
-1303 -1403 0
-1301 -1801 0
-1302 -1802 0
-1303 -1803 0
-1301 -1901 0
-1302 -1902 0
-1303 -1903 0
-1301 -2201 0
-1302 -2202 0
-1303 -2203 0
-1301 -2301 0
-1302 -2302 0
-1303 -2303 0
-1301 -2801 0
-1302 -2802 0
-1303 -2803 0
-1301 -2901 0
-1302 -2902 0
-1303 -2903 0
-1401 -1601 0
-1402 -1602 0
-1403 -1603 0
-1401 -1801 0
-1402 -1802 0
-1403 -1803 0
-1401 -1901 0
-1402 -1902 0
-1403 -1903 0
-1401 -2101 0
-1402 -2102 0
-1403 -2103 0
-1401 -2701 0
-1402 -2702 0
-1403 -2703 0
-1401 -2801 0
-1402 -2802 0
-1403 -2803 0
-1401 -3001 0
-1402 -3002 0
-1403 -3003 0
-1501 -1601 0
-1502 -1602 0
-1503 -1603 0
-1501 -1801 0
-1502 -1802 0
-1503 -1803 0
-1501 -1901 0
-1502 -1902 0
-1503 -1903 0
-1501 -2001 0
-1502 -2002 0
-1503 -2003 0
-1501 -2101 0
-1502 -2102 0
-1503 -2103 0
-1501 -2401 0
-1502 -2402 0
-1503 -2403 0
-1501 -2501 0
-1502 -2502 0
-1503 -2503 0
-1501 -3001 0
-1502 -3002 0
-1503 -3003 0
-1601 -1701 0
-1602 -1702 0
-1603 -1703 0
-1601 -2201 0
-1602 -2202 0
-1603 -2203 0
-1601 -2301 0
-1602 -2302 0
-1603 -2303 0
-1601 -2701 0
-1602 -2702 0
-1603 -2703 0
-1701 -2101 0
-1702 -2102 0
-1703 -2103 0
-1701 -2301 0
-1702 -2302 0
-1703 -2303 0
-1801 -1901 0
-1802 -1902 0
-1803 -1903 0
-1801 -2001 0
-1802 -2002 0
-1803 -2003 0
-1801 -2301 0
-1802 -2302 0
-1803 -2303 0
-1801 -2501 0
-1802 -2502 0
-1803 -2503 0
-1801 -2701 0
-1802 -2702 0
-1803 -2703 0
-1801 -2901 0
-1802 -2902 0
-1803 -2903 0
-2001 -2101 0
-2002 -2102 0
-2003 -2103 0
-2001 -2501 0
-2002 -2502 0
-2003 -2503 0
-2001 -2801 0
-2002 -2802 0
-2003 -2803 0
-2101 -2201 0
-2102 -2202 0
-2103 -2203 0
-2101 -2301 0
-2102 -2302 0
-2103 -2303 0
-2101 -2401 0
-2102 -2402 0
-2103 -2403 0
-2101 -2501 0
-2102 -2502 0
-2103 -2503 0
-2101 -2901 0
-2102 -2902 0
-2103 -2903 0
-2201 -2401 0
-2202 -2402 0
-2203 -2403 0
-2201 -2501 0
-2202 -2502 0
-2203 -2503 0
-2201 -2901 0
-2202 -2902 0
-2203 -2903 0
-2401 -2601 0
-2402 -2602 0
-2403 -2603 0
-2401 -2801 0
-2402 -2802 0
-2403 -2803 0
-2501 -2701 0
-2502 -2702 0
-2503 -2703 0
-2501 -3001 0
-2502 -3002 0
-2503 -3003 0
-2901 -3001 0
-2902 -3002 0
-2903 -3003 0
